p edge 217 2449
v 1 331
v 2 313
v 3 317
v 4 568
v 5 250
v 6 620
v 7 563
v 8 266
v 9 645
v 10 477
v 11 597
v 12 578
v 13 368
v 14 444
v 15 438
v 16 493
v 17 291
v 18 316
v 19 542
v 20 506
v 21 429
v 22 412
v 23 626
v 24 423
v 25 332
v 26 685
v 27 383
v 28 206
v 29 544
v 30 240
v 31 397
v 32 533
v 33 391
v 34 237
v 35 300
v 36 643
v 37 277
v 38 306
v 39 237
v 40 332
v 41 546
v 42 613
v 43 689
v 44 229
v 45 266
v 46 515
v 47 479
v 48 644
v 49 684
v 50 683
v 51 395
v 52 654
v 53 344
v 54 359
v 55 663
v 56 332
v 57 694
v 58 474
v 59 277
v 60 554
v 61 519
v 62 516
v 63 522
v 64 429
v 65 257
v 66 688
v 67 451
v 68 216
v 69 223
v 70 219
v 71 302
v 72 529
v 73 208
v 74 378
v 75 278
v 76 476
v 77 567
v 78 425
v 79 333
v 80 550
v 81 306
v 82 381
v 83 391
v 84 485
v 85 361
v 86 351
v 87 324
v 88 325
v 89 532
v 90 556
v 91 468
v 92 390
v 93 237
v 94 527
v 95 600
v 96 370
v 97 324
v 98 354
v 99 635
v 100 265
v 101 532
v 102 284
v 103 612
v 104 476
v 105 289
v 106 521
v 107 636
v 108 519
v 109 472
v 110 221
v 111 615
v 112 466
v 113 566
v 114 702
v 115 618
v 116 480
v 117 338
v 118 401
v 119 522
v 120 215
v 121 691
v 122 386
v 123 312
v 124 234
v 125 253
v 126 553
v 127 232
v 128 225
v 129 261
v 130 308
v 131 445
v 132 354
v 133 386
v 134 275
v 135 299
v 136 626
v 137 607
v 138 460
v 139 450
v 140 378
v 141 543
v 142 280
v 143 514
v 144 268
v 145 356
v 146 567
v 147 622
v 148 486
v 149 658
v 150 410
v 151 237
v 152 211
v 153 270
v 154 203
v 155 301
v 156 301
v 157 273
v 158 557
v 159 201
v 160 293
v 161 207
v 162 233
v 163 340
v 164 477
v 165 510
v 166 392
v 167 630
v 168 318
v 169 326
v 170 452
v 171 520
v 172 384
v 173 263
v 174 312
v 175 271
v 176 363
v 177 564
v 178 373
v 179 610
v 180 329
v 181 427
v 182 448
v 183 363
v 184 344
v 185 219
v 186 299
v 187 688
v 188 694
v 189 557
v 190 268
v 191 661
v 192 266
v 193 210
v 194 645
v 195 445
v 196 277
v 197 458
v 198 390
v 199 500
v 200 320
v 201 447
v 202 487
v 203 687
v 204 503
v 205 247
v 206 356
v 207 594
v 208 391
v 209 383
v 210 689
v 211 588
v 212 562
v 213 696
v 214 351
v 215 640
v 216 333
v 217 527
e 1 2
e 1 3
e 1 4
e 1 5
e 1 6
e 1 7
e 1 8
e 1 9
e 1 10
e 1 11
e 1 12
e 1 14
e 1 45
e 1 70
e 1 86
e 1 97
e 1 112
e 1 123
e 1 137
e 1 147
e 1 160
e 1 184
e 1 204
e 2 3
e 2 4
e 2 5
e 2 6
e 2 7
e 2 8
e 2 9
e 2 10
e 2 11
e 2 12
e 2 24
e 2 47
e 2 58
e 2 88
e 2 99
e 2 114
e 2 124
e 2 149
e 2 162
e 2 172
e 2 185
e 3 4
e 3 5
e 3 6
e 3 7
e 3 8
e 3 9
e 3 10
e 3 11
e 3 12
e 3 25
e 3 59
e 3 72
e 3 100
e 3 115
e 3 125
e 3 163
e 3 173
e 3 186
e 3 195
e 3 206
e 4 5
e 4 6
e 4 7
e 4 8
e 4 9
e 4 10
e 4 11
e 4 12
e 4 17
e 4 26
e 4 36
e 4 49
e 4 74
e 4 89
e 4 102
e 4 116
e 4 127
e 4 151
e 4 187
e 4 196
e 4 208
e 5 6
e 5 7
e 5 8
e 5 9
e 5 10
e 5 11
e 5 12
e 5 27
e 5 50
e 5 61
e 5 75
e 5 90
e 5 103
e 5 128
e 5 174
e 5 188
e 5 197
e 5 209
e 6 7
e 6 8
e 6 9
e 6 10
e 6 11
e 6 12
e 6 29
e 6 38
e 6 51
e 6 63
e 6 77
e 6 92
e 6 119
e 6 141
e 6 153
e 6 167
e 6 177
e 6 200
e 6 211
e 7 8
e 7 9
e 7 10
e 7 11
e 7 12
e 7 19
e 7 30
e 7 39
e 7 52
e 7 78
e 7 106
e 7 120
e 7 131
e 7 142
e 7 154
e 7 178
e 7 212
e 8 9
e 8 10
e 8 11
e 8 12
e 8 53
e 8 64
e 8 79
e 8 93
e 8 107
e 8 132
e 8 155
e 8 201
e 9 10
e 9 11
e 9 12
e 9 31
e 9 40
e 9 65
e 9 80
e 9 133
e 9 156
e 9 168
e 9 179
e 9 190
e 9 213
e 10 11
e 10 12
e 10 20
e 10 32
e 10 41
e 10 54
e 10 66
e 10 81
e 10 180
e 10 191
e 10 202
e 10 214
e 11 12
e 11 34
e 11 42
e 11 55
e 11 68
e 11 83
e 11 95
e 11 109
e 11 134
e 11 144
e 11 158
e 11 181
e 11 193
e 11 216
e 12 22
e 12 43
e 12 56
e 12 69
e 12 84
e 12 110
e 12 135
e 12 145
e 12 159
e 12 169
e 12 182
e 12 217
e 13 14
e 13 15
e 13 16
e 13 17
e 13 18
e 13 19
e 13 20
e 13 21
e 13 22
e 13 23
e 13 35
e 13 44
e 13 57
e 13 85
e 13 96
e 13 111
e 13 122
e 13 136
e 13 146
e 13 170
e 13 183
e 13 194
e 14 15
e 14 16
e 14 17
e 14 18
e 14 19
e 14 20
e 14 21
e 14 22
e 14 45
e 14 70
e 14 86
e 14 97
e 14 112
e 14 123
e 14 137
e 14 147
e 14 160
e 14 184
e 14 204
e 15 16
e 15 17
e 15 18
e 15 19
e 15 20
e 15 21
e 15 22
e 15 46
e 15 71
e 15 87
e 15 98
e 15 113
e 15 138
e 15 148
e 15 161
e 15 171
e 15 205
e 16 17
e 16 18
e 16 19
e 16 20
e 16 21
e 16 22
e 16 48
e 16 60
e 16 73
e 16 101
e 16 126
e 16 139
e 16 150
e 16 164
e 16 207
e 17 18
e 17 19
e 17 20
e 17 21
e 17 22
e 17 26
e 17 36
e 17 49
e 17 74
e 17 89
e 17 102
e 17 116
e 17 127
e 17 151
e 17 187
e 17 196
e 17 208
e 18 19
e 18 20
e 18 21
e 18 22
e 18 37
e 18 62
e 18 91
e 18 104
e 18 117
e 18 129
e 18 165
e 18 175
e 18 189
e 18 198
e 18 210
e 19 20
e 19 21
e 19 22
e 19 30
e 19 39
e 19 52
e 19 78
e 19 106
e 19 120
e 19 131
e 19 142
e 19 154
e 19 178
e 19 212
e 20 21
e 20 22
e 20 32
e 20 41
e 20 54
e 20 66
e 20 81
e 20 180
e 20 191
e 20 202
e 20 214
e 21 22
e 21 33
e 21 67
e 21 82
e 21 94
e 21 108
e 21 121
e 21 143
e 21 157
e 21 192
e 21 203
e 21 215
e 22 43
e 22 56
e 22 69
e 22 84
e 22 110
e 22 135
e 22 145
e 22 159
e 22 169
e 22 182
e 22 217
e 23 24
e 23 25
e 23 26
e 23 27
e 23 28
e 23 29
e 23 30
e 23 31
e 23 32
e 23 33
e 23 34
e 23 35
e 23 44
e 23 57
e 23 85
e 23 96
e 23 111
e 23 122
e 23 136
e 23 146
e 23 170
e 23 183
e 23 194
e 24 25
e 24 26
e 24 27
e 24 28
e 24 29
e 24 30
e 24 31
e 24 32
e 24 33
e 24 34
e 24 47
e 24 58
e 24 88
e 24 99
e 24 114
e 24 124
e 24 149
e 24 162
e 24 172
e 24 185
e 25 26
e 25 27
e 25 28
e 25 29
e 25 30
e 25 31
e 25 32
e 25 33
e 25 34
e 25 59
e 25 72
e 25 100
e 25 115
e 25 125
e 25 163
e 25 173
e 25 186
e 25 195
e 25 206
e 26 27
e 26 28
e 26 29
e 26 30
e 26 31
e 26 32
e 26 33
e 26 34
e 26 36
e 26 49
e 26 74
e 26 89
e 26 102
e 26 116
e 26 127
e 26 151
e 26 187
e 26 196
e 26 208
e 27 28
e 27 29
e 27 30
e 27 31
e 27 32
e 27 33
e 27 34
e 27 50
e 27 61
e 27 75
e 27 90
e 27 103
e 27 128
e 27 174
e 27 188
e 27 197
e 27 209
e 28 29
e 28 30
e 28 31
e 28 32
e 28 33
e 28 34
e 28 76
e 28 105
e 28 118
e 28 130
e 28 140
e 28 152
e 28 166
e 28 176
e 28 199
e 29 30
e 29 31
e 29 32
e 29 33
e 29 34
e 29 38
e 29 51
e 29 63
e 29 77
e 29 92
e 29 119
e 29 141
e 29 153
e 29 167
e 29 177
e 29 200
e 29 211
e 30 31
e 30 32
e 30 33
e 30 34
e 30 39
e 30 52
e 30 78
e 30 106
e 30 120
e 30 131
e 30 142
e 30 154
e 30 178
e 30 212
e 31 32
e 31 33
e 31 34
e 31 40
e 31 65
e 31 80
e 31 133
e 31 156
e 31 168
e 31 179
e 31 190
e 31 213
e 32 33
e 32 34
e 32 41
e 32 54
e 32 66
e 32 81
e 32 180
e 32 191
e 32 202
e 32 214
e 33 34
e 33 67
e 33 82
e 33 94
e 33 108
e 33 121
e 33 143
e 33 157
e 33 192
e 33 203
e 33 215
e 34 42
e 34 55
e 34 68
e 34 83
e 34 95
e 34 109
e 34 134
e 34 144
e 34 158
e 34 181
e 34 193
e 34 216
e 35 36
e 35 37
e 35 38
e 35 39
e 35 40
e 35 41
e 35 42
e 35 43
e 35 44
e 35 57
e 35 85
e 35 96
e 35 111
e 35 122
e 35 136
e 35 146
e 35 170
e 35 183
e 35 194
e 36 37
e 36 38
e 36 39
e 36 40
e 36 41
e 36 42
e 36 43
e 36 49
e 36 74
e 36 89
e 36 102
e 36 116
e 36 127
e 36 151
e 36 187
e 36 196
e 36 208
e 37 38
e 37 39
e 37 40
e 37 41
e 37 42
e 37 43
e 37 62
e 37 91
e 37 104
e 37 117
e 37 129
e 37 165
e 37 175
e 37 189
e 37 198
e 37 210
e 38 39
e 38 40
e 38 41
e 38 42
e 38 43
e 38 51
e 38 63
e 38 77
e 38 92
e 38 119
e 38 141
e 38 153
e 38 167
e 38 177
e 38 200
e 38 211
e 39 40
e 39 41
e 39 42
e 39 43
e 39 52
e 39 78
e 39 106
e 39 120
e 39 131
e 39 142
e 39 154
e 39 178
e 39 212
e 40 41
e 40 42
e 40 43
e 40 65
e 40 80
e 40 133
e 40 156
e 40 168
e 40 179
e 40 190
e 40 213
e 41 42
e 41 43
e 41 54
e 41 66
e 41 81
e 41 180
e 41 191
e 41 202
e 41 214
e 42 43
e 42 55
e 42 68
e 42 83
e 42 95
e 42 109
e 42 134
e 42 144
e 42 158
e 42 181
e 42 193
e 42 216
e 43 56
e 43 69
e 43 84
e 43 110
e 43 135
e 43 145
e 43 159
e 43 169
e 43 182
e 43 217
e 44 45
e 44 46
e 44 47
e 44 48
e 44 49
e 44 50
e 44 51
e 44 52
e 44 53
e 44 54
e 44 55
e 44 56
e 44 57
e 44 85
e 44 96
e 44 111
e 44 122
e 44 136
e 44 146
e 44 170
e 44 183
e 44 194
e 45 46
e 45 47
e 45 48
e 45 49
e 45 50
e 45 51
e 45 52
e 45 53
e 45 54
e 45 55
e 45 56
e 45 70
e 45 86
e 45 97
e 45 112
e 45 123
e 45 137
e 45 147
e 45 160
e 45 184
e 45 204
e 46 47
e 46 48
e 46 49
e 46 50
e 46 51
e 46 52
e 46 53
e 46 54
e 46 55
e 46 56
e 46 71
e 46 87
e 46 98
e 46 113
e 46 138
e 46 148
e 46 161
e 46 171
e 46 205
e 47 48
e 47 49
e 47 50
e 47 51
e 47 52
e 47 53
e 47 54
e 47 55
e 47 56
e 47 58
e 47 88
e 47 99
e 47 114
e 47 124
e 47 149
e 47 162
e 47 172
e 47 185
e 48 49
e 48 50
e 48 51
e 48 52
e 48 53
e 48 54
e 48 55
e 48 56
e 48 60
e 48 73
e 48 101
e 48 126
e 48 139
e 48 150
e 48 164
e 48 207
e 49 50
e 49 51
e 49 52
e 49 53
e 49 54
e 49 55
e 49 56
e 49 74
e 49 89
e 49 102
e 49 116
e 49 127
e 49 151
e 49 187
e 49 196
e 49 208
e 50 51
e 50 52
e 50 53
e 50 54
e 50 55
e 50 56
e 50 61
e 50 75
e 50 90
e 50 103
e 50 128
e 50 174
e 50 188
e 50 197
e 50 209
e 51 52
e 51 53
e 51 54
e 51 55
e 51 56
e 51 63
e 51 77
e 51 92
e 51 119
e 51 141
e 51 153
e 51 167
e 51 177
e 51 200
e 51 211
e 52 53
e 52 54
e 52 55
e 52 56
e 52 78
e 52 106
e 52 120
e 52 131
e 52 142
e 52 154
e 52 178
e 52 212
e 53 54
e 53 55
e 53 56
e 53 64
e 53 79
e 53 93
e 53 107
e 53 132
e 53 155
e 53 201
e 54 55
e 54 56
e 54 66
e 54 81
e 54 180
e 54 191
e 54 202
e 54 214
e 55 56
e 55 68
e 55 83
e 55 95
e 55 109
e 55 134
e 55 144
e 55 158
e 55 181
e 55 193
e 55 216
e 56 69
e 56 84
e 56 110
e 56 135
e 56 145
e 56 159
e 56 169
e 56 182
e 56 217
e 57 58
e 57 59
e 57 60
e 57 61
e 57 62
e 57 63
e 57 64
e 57 65
e 57 66
e 57 67
e 57 68
e 57 69
e 57 85
e 57 96
e 57 111
e 57 122
e 57 136
e 57 146
e 57 170
e 57 183
e 57 194
e 58 59
e 58 60
e 58 61
e 58 62
e 58 63
e 58 64
e 58 65
e 58 66
e 58 67
e 58 68
e 58 69
e 58 88
e 58 99
e 58 114
e 58 124
e 58 149
e 58 162
e 58 172
e 58 185
e 59 60
e 59 61
e 59 62
e 59 63
e 59 64
e 59 65
e 59 66
e 59 67
e 59 68
e 59 69
e 59 72
e 59 100
e 59 115
e 59 125
e 59 163
e 59 173
e 59 186
e 59 195
e 59 206
e 60 61
e 60 62
e 60 63
e 60 64
e 60 65
e 60 66
e 60 67
e 60 68
e 60 69
e 60 73
e 60 101
e 60 126
e 60 139
e 60 150
e 60 164
e 60 207
e 61 62
e 61 63
e 61 64
e 61 65
e 61 66
e 61 67
e 61 68
e 61 69
e 61 75
e 61 90
e 61 103
e 61 128
e 61 174
e 61 188
e 61 197
e 61 209
e 62 63
e 62 64
e 62 65
e 62 66
e 62 67
e 62 68
e 62 69
e 62 91
e 62 104
e 62 117
e 62 129
e 62 165
e 62 175
e 62 189
e 62 198
e 62 210
e 63 64
e 63 65
e 63 66
e 63 67
e 63 68
e 63 69
e 63 77
e 63 92
e 63 119
e 63 141
e 63 153
e 63 167
e 63 177
e 63 200
e 63 211
e 64 65
e 64 66
e 64 67
e 64 68
e 64 69
e 64 79
e 64 93
e 64 107
e 64 132
e 64 155
e 64 201
e 65 66
e 65 67
e 65 68
e 65 69
e 65 80
e 65 133
e 65 156
e 65 168
e 65 179
e 65 190
e 65 213
e 66 67
e 66 68
e 66 69
e 66 81
e 66 180
e 66 191
e 66 202
e 66 214
e 67 68
e 67 69
e 67 82
e 67 94
e 67 108
e 67 121
e 67 143
e 67 157
e 67 192
e 67 203
e 67 215
e 68 69
e 68 83
e 68 95
e 68 109
e 68 134
e 68 144
e 68 158
e 68 181
e 68 193
e 68 216
e 69 84
e 69 110
e 69 135
e 69 145
e 69 159
e 69 169
e 69 182
e 69 217
e 70 71
e 70 72
e 70 73
e 70 74
e 70 75
e 70 76
e 70 77
e 70 78
e 70 79
e 70 80
e 70 81
e 70 82
e 70 83
e 70 84
e 70 86
e 70 97
e 70 112
e 70 123
e 70 137
e 70 147
e 70 160
e 70 184
e 70 204
e 71 72
e 71 73
e 71 74
e 71 75
e 71 76
e 71 77
e 71 78
e 71 79
e 71 80
e 71 81
e 71 82
e 71 83
e 71 84
e 71 87
e 71 98
e 71 113
e 71 138
e 71 148
e 71 161
e 71 171
e 71 205
e 72 73
e 72 74
e 72 75
e 72 76
e 72 77
e 72 78
e 72 79
e 72 80
e 72 81
e 72 82
e 72 83
e 72 84
e 72 100
e 72 115
e 72 125
e 72 163
e 72 173
e 72 186
e 72 195
e 72 206
e 73 74
e 73 75
e 73 76
e 73 77
e 73 78
e 73 79
e 73 80
e 73 81
e 73 82
e 73 83
e 73 84
e 73 101
e 73 126
e 73 139
e 73 150
e 73 164
e 73 207
e 74 75
e 74 76
e 74 77
e 74 78
e 74 79
e 74 80
e 74 81
e 74 82
e 74 83
e 74 84
e 74 89
e 74 102
e 74 116
e 74 127
e 74 151
e 74 187
e 74 196
e 74 208
e 75 76
e 75 77
e 75 78
e 75 79
e 75 80
e 75 81
e 75 82
e 75 83
e 75 84
e 75 90
e 75 103
e 75 128
e 75 174
e 75 188
e 75 197
e 75 209
e 76 77
e 76 78
e 76 79
e 76 80
e 76 81
e 76 82
e 76 83
e 76 84
e 76 105
e 76 118
e 76 130
e 76 140
e 76 152
e 76 166
e 76 176
e 76 199
e 77 78
e 77 79
e 77 80
e 77 81
e 77 82
e 77 83
e 77 84
e 77 92
e 77 119
e 77 141
e 77 153
e 77 167
e 77 177
e 77 200
e 77 211
e 78 79
e 78 80
e 78 81
e 78 82
e 78 83
e 78 84
e 78 106
e 78 120
e 78 131
e 78 142
e 78 154
e 78 178
e 78 212
e 79 80
e 79 81
e 79 82
e 79 83
e 79 84
e 79 93
e 79 107
e 79 132
e 79 155
e 79 201
e 80 81
e 80 82
e 80 83
e 80 84
e 80 133
e 80 156
e 80 168
e 80 179
e 80 190
e 80 213
e 81 82
e 81 83
e 81 84
e 81 180
e 81 191
e 81 202
e 81 214
e 82 83
e 82 84
e 82 94
e 82 108
e 82 121
e 82 143
e 82 157
e 82 192
e 82 203
e 82 215
e 83 84
e 83 95
e 83 109
e 83 134
e 83 144
e 83 158
e 83 181
e 83 193
e 83 216
e 84 110
e 84 135
e 84 145
e 84 159
e 84 169
e 84 182
e 84 217
e 85 86
e 85 87
e 85 88
e 85 89
e 85 90
e 85 91
e 85 92
e 85 93
e 85 94
e 85 95
e 85 96
e 85 111
e 85 122
e 85 136
e 85 146
e 85 170
e 85 183
e 85 194
e 86 87
e 86 88
e 86 89
e 86 90
e 86 91
e 86 92
e 86 93
e 86 94
e 86 95
e 86 97
e 86 112
e 86 123
e 86 137
e 86 147
e 86 160
e 86 184
e 86 204
e 87 88
e 87 89
e 87 90
e 87 91
e 87 92
e 87 93
e 87 94
e 87 95
e 87 98
e 87 113
e 87 138
e 87 148
e 87 161
e 87 171
e 87 205
e 88 89
e 88 90
e 88 91
e 88 92
e 88 93
e 88 94
e 88 95
e 88 99
e 88 114
e 88 124
e 88 149
e 88 162
e 88 172
e 88 185
e 89 90
e 89 91
e 89 92
e 89 93
e 89 94
e 89 95
e 89 102
e 89 116
e 89 127
e 89 151
e 89 187
e 89 196
e 89 208
e 90 91
e 90 92
e 90 93
e 90 94
e 90 95
e 90 103
e 90 128
e 90 174
e 90 188
e 90 197
e 90 209
e 91 92
e 91 93
e 91 94
e 91 95
e 91 104
e 91 117
e 91 129
e 91 165
e 91 175
e 91 189
e 91 198
e 91 210
e 92 93
e 92 94
e 92 95
e 92 119
e 92 141
e 92 153
e 92 167
e 92 177
e 92 200
e 92 211
e 93 94
e 93 95
e 93 107
e 93 132
e 93 155
e 93 201
e 94 95
e 94 108
e 94 121
e 94 143
e 94 157
e 94 192
e 94 203
e 94 215
e 95 109
e 95 134
e 95 144
e 95 158
e 95 181
e 95 193
e 95 216
e 96 97
e 96 98
e 96 99
e 96 100
e 96 101
e 96 102
e 96 103
e 96 104
e 96 105
e 96 106
e 96 107
e 96 108
e 96 109
e 96 110
e 96 111
e 96 122
e 96 136
e 96 146
e 96 170
e 96 183
e 96 194
e 97 98
e 97 99
e 97 100
e 97 101
e 97 102
e 97 103
e 97 104
e 97 105
e 97 106
e 97 107
e 97 108
e 97 109
e 97 110
e 97 112
e 97 123
e 97 137
e 97 147
e 97 160
e 97 184
e 97 204
e 98 99
e 98 100
e 98 101
e 98 102
e 98 103
e 98 104
e 98 105
e 98 106
e 98 107
e 98 108
e 98 109
e 98 110
e 98 113
e 98 138
e 98 148
e 98 161
e 98 171
e 98 205
e 99 100
e 99 101
e 99 102
e 99 103
e 99 104
e 99 105
e 99 106
e 99 107
e 99 108
e 99 109
e 99 110
e 99 114
e 99 124
e 99 149
e 99 162
e 99 172
e 99 185
e 100 101
e 100 102
e 100 103
e 100 104
e 100 105
e 100 106
e 100 107
e 100 108
e 100 109
e 100 110
e 100 115
e 100 125
e 100 163
e 100 173
e 100 186
e 100 195
e 100 206
e 101 102
e 101 103
e 101 104
e 101 105
e 101 106
e 101 107
e 101 108
e 101 109
e 101 110
e 101 126
e 101 139
e 101 150
e 101 164
e 101 207
e 102 103
e 102 104
e 102 105
e 102 106
e 102 107
e 102 108
e 102 109
e 102 110
e 102 116
e 102 127
e 102 151
e 102 187
e 102 196
e 102 208
e 103 104
e 103 105
e 103 106
e 103 107
e 103 108
e 103 109
e 103 110
e 103 128
e 103 174
e 103 188
e 103 197
e 103 209
e 104 105
e 104 106
e 104 107
e 104 108
e 104 109
e 104 110
e 104 117
e 104 129
e 104 165
e 104 175
e 104 189
e 104 198
e 104 210
e 105 106
e 105 107
e 105 108
e 105 109
e 105 110
e 105 118
e 105 130
e 105 140
e 105 152
e 105 166
e 105 176
e 105 199
e 106 107
e 106 108
e 106 109
e 106 110
e 106 120
e 106 131
e 106 142
e 106 154
e 106 178
e 106 212
e 107 108
e 107 109
e 107 110
e 107 132
e 107 155
e 107 201
e 108 109
e 108 110
e 108 121
e 108 143
e 108 157
e 108 192
e 108 203
e 108 215
e 109 110
e 109 134
e 109 144
e 109 158
e 109 181
e 109 193
e 109 216
e 110 135
e 110 145
e 110 159
e 110 169
e 110 182
e 110 217
e 111 112
e 111 113
e 111 114
e 111 115
e 111 116
e 111 117
e 111 118
e 111 119
e 111 120
e 111 121
e 111 122
e 111 136
e 111 146
e 111 170
e 111 183
e 111 194
e 112 113
e 112 114
e 112 115
e 112 116
e 112 117
e 112 118
e 112 119
e 112 120
e 112 121
e 112 123
e 112 137
e 112 147
e 112 160
e 112 184
e 112 204
e 113 114
e 113 115
e 113 116
e 113 117
e 113 118
e 113 119
e 113 120
e 113 121
e 113 138
e 113 148
e 113 161
e 113 171
e 113 205
e 114 115
e 114 116
e 114 117
e 114 118
e 114 119
e 114 120
e 114 121
e 114 124
e 114 149
e 114 162
e 114 172
e 114 185
e 115 116
e 115 117
e 115 118
e 115 119
e 115 120
e 115 121
e 115 125
e 115 163
e 115 173
e 115 186
e 115 195
e 115 206
e 116 117
e 116 118
e 116 119
e 116 120
e 116 121
e 116 127
e 116 151
e 116 187
e 116 196
e 116 208
e 117 118
e 117 119
e 117 120
e 117 121
e 117 129
e 117 165
e 117 175
e 117 189
e 117 198
e 117 210
e 118 119
e 118 120
e 118 121
e 118 130
e 118 140
e 118 152
e 118 166
e 118 176
e 118 199
e 119 120
e 119 121
e 119 141
e 119 153
e 119 167
e 119 177
e 119 200
e 119 211
e 120 121
e 120 131
e 120 142
e 120 154
e 120 178
e 120 212
e 121 143
e 121 157
e 121 192
e 121 203
e 121 215
e 122 123
e 122 124
e 122 125
e 122 126
e 122 127
e 122 128
e 122 129
e 122 130
e 122 131
e 122 132
e 122 133
e 122 134
e 122 135
e 122 136
e 122 146
e 122 170
e 122 183
e 122 194
e 123 124
e 123 125
e 123 126
e 123 127
e 123 128
e 123 129
e 123 130
e 123 131
e 123 132
e 123 133
e 123 134
e 123 135
e 123 137
e 123 147
e 123 160
e 123 184
e 123 204
e 124 125
e 124 126
e 124 127
e 124 128
e 124 129
e 124 130
e 124 131
e 124 132
e 124 133
e 124 134
e 124 135
e 124 149
e 124 162
e 124 172
e 124 185
e 125 126
e 125 127
e 125 128
e 125 129
e 125 130
e 125 131
e 125 132
e 125 133
e 125 134
e 125 135
e 125 163
e 125 173
e 125 186
e 125 195
e 125 206
e 126 127
e 126 128
e 126 129
e 126 130
e 126 131
e 126 132
e 126 133
e 126 134
e 126 135
e 126 139
e 126 150
e 126 164
e 126 207
e 127 128
e 127 129
e 127 130
e 127 131
e 127 132
e 127 133
e 127 134
e 127 135
e 127 151
e 127 187
e 127 196
e 127 208
e 128 129
e 128 130
e 128 131
e 128 132
e 128 133
e 128 134
e 128 135
e 128 174
e 128 188
e 128 197
e 128 209
e 129 130
e 129 131
e 129 132
e 129 133
e 129 134
e 129 135
e 129 165
e 129 175
e 129 189
e 129 198
e 129 210
e 130 131
e 130 132
e 130 133
e 130 134
e 130 135
e 130 140
e 130 152
e 130 166
e 130 176
e 130 199
e 131 132
e 131 133
e 131 134
e 131 135
e 131 142
e 131 154
e 131 178
e 131 212
e 132 133
e 132 134
e 132 135
e 132 155
e 132 201
e 133 134
e 133 135
e 133 156
e 133 168
e 133 179
e 133 190
e 133 213
e 134 135
e 134 144
e 134 158
e 134 181
e 134 193
e 134 216
e 135 145
e 135 159
e 135 169
e 135 182
e 135 217
e 136 137
e 136 138
e 136 139
e 136 140
e 136 141
e 136 142
e 136 143
e 136 144
e 136 145
e 136 146
e 136 170
e 136 183
e 136 194
e 137 138
e 137 139
e 137 140
e 137 141
e 137 142
e 137 143
e 137 144
e 137 145
e 137 147
e 137 160
e 137 184
e 137 204
e 138 139
e 138 140
e 138 141
e 138 142
e 138 143
e 138 144
e 138 145
e 138 148
e 138 161
e 138 171
e 138 205
e 139 140
e 139 141
e 139 142
e 139 143
e 139 144
e 139 145
e 139 150
e 139 164
e 139 207
e 140 141
e 140 142
e 140 143
e 140 144
e 140 145
e 140 152
e 140 166
e 140 176
e 140 199
e 141 142
e 141 143
e 141 144
e 141 145
e 141 153
e 141 167
e 141 177
e 141 200
e 141 211
e 142 143
e 142 144
e 142 145
e 142 154
e 142 178
e 142 212
e 143 144
e 143 145
e 143 157
e 143 192
e 143 203
e 143 215
e 144 145
e 144 158
e 144 181
e 144 193
e 144 216
e 145 159
e 145 169
e 145 182
e 145 217
e 146 147
e 146 148
e 146 149
e 146 150
e 146 151
e 146 152
e 146 153
e 146 154
e 146 155
e 146 156
e 146 157
e 146 158
e 146 159
e 146 170
e 146 183
e 146 194
e 147 148
e 147 149
e 147 150
e 147 151
e 147 152
e 147 153
e 147 154
e 147 155
e 147 156
e 147 157
e 147 158
e 147 159
e 147 160
e 147 184
e 147 204
e 148 149
e 148 150
e 148 151
e 148 152
e 148 153
e 148 154
e 148 155
e 148 156
e 148 157
e 148 158
e 148 159
e 148 161
e 148 171
e 148 205
e 149 150
e 149 151
e 149 152
e 149 153
e 149 154
e 149 155
e 149 156
e 149 157
e 149 158
e 149 159
e 149 162
e 149 172
e 149 185
e 150 151
e 150 152
e 150 153
e 150 154
e 150 155
e 150 156
e 150 157
e 150 158
e 150 159
e 150 164
e 150 207
e 151 152
e 151 153
e 151 154
e 151 155
e 151 156
e 151 157
e 151 158
e 151 159
e 151 187
e 151 196
e 151 208
e 152 153
e 152 154
e 152 155
e 152 156
e 152 157
e 152 158
e 152 159
e 152 166
e 152 176
e 152 199
e 153 154
e 153 155
e 153 156
e 153 157
e 153 158
e 153 159
e 153 167
e 153 177
e 153 200
e 153 211
e 154 155
e 154 156
e 154 157
e 154 158
e 154 159
e 154 178
e 154 212
e 155 156
e 155 157
e 155 158
e 155 159
e 155 201
e 156 157
e 156 158
e 156 159
e 156 168
e 156 179
e 156 190
e 156 213
e 157 158
e 157 159
e 157 192
e 157 203
e 157 215
e 158 159
e 158 181
e 158 193
e 158 216
e 159 169
e 159 182
e 159 217
e 160 161
e 160 162
e 160 163
e 160 164
e 160 165
e 160 166
e 160 167
e 160 168
e 160 169
e 160 184
e 160 204
e 161 162
e 161 163
e 161 164
e 161 165
e 161 166
e 161 167
e 161 168
e 161 169
e 161 171
e 161 205
e 162 163
e 162 164
e 162 165
e 162 166
e 162 167
e 162 168
e 162 169
e 162 172
e 162 185
e 163 164
e 163 165
e 163 166
e 163 167
e 163 168
e 163 169
e 163 173
e 163 186
e 163 195
e 163 206
e 164 165
e 164 166
e 164 167
e 164 168
e 164 169
e 164 207
e 165 166
e 165 167
e 165 168
e 165 169
e 165 175
e 165 189
e 165 198
e 165 210
e 166 167
e 166 168
e 166 169
e 166 176
e 166 199
e 167 168
e 167 169
e 167 177
e 167 200
e 167 211
e 168 169
e 168 179
e 168 190
e 168 213
e 169 182
e 169 217
e 170 171
e 170 172
e 170 173
e 170 174
e 170 175
e 170 176
e 170 177
e 170 178
e 170 179
e 170 180
e 170 181
e 170 182
e 170 183
e 170 194
e 171 172
e 171 173
e 171 174
e 171 175
e 171 176
e 171 177
e 171 178
e 171 179
e 171 180
e 171 181
e 171 182
e 171 205
e 172 173
e 172 174
e 172 175
e 172 176
e 172 177
e 172 178
e 172 179
e 172 180
e 172 181
e 172 182
e 172 185
e 173 174
e 173 175
e 173 176
e 173 177
e 173 178
e 173 179
e 173 180
e 173 181
e 173 182
e 173 186
e 173 195
e 173 206
e 174 175
e 174 176
e 174 177
e 174 178
e 174 179
e 174 180
e 174 181
e 174 182
e 174 188
e 174 197
e 174 209
e 175 176
e 175 177
e 175 178
e 175 179
e 175 180
e 175 181
e 175 182
e 175 189
e 175 198
e 175 210
e 176 177
e 176 178
e 176 179
e 176 180
e 176 181
e 176 182
e 176 199
e 177 178
e 177 179
e 177 180
e 177 181
e 177 182
e 177 200
e 177 211
e 178 179
e 178 180
e 178 181
e 178 182
e 178 212
e 179 180
e 179 181
e 179 182
e 179 190
e 179 213
e 180 181
e 180 182
e 180 191
e 180 202
e 180 214
e 181 182
e 181 193
e 181 216
e 182 217
e 183 184
e 183 185
e 183 186
e 183 187
e 183 188
e 183 189
e 183 190
e 183 191
e 183 192
e 183 193
e 183 194
e 184 185
e 184 186
e 184 187
e 184 188
e 184 189
e 184 190
e 184 191
e 184 192
e 184 193
e 184 204
e 185 186
e 185 187
e 185 188
e 185 189
e 185 190
e 185 191
e 185 192
e 185 193
e 186 187
e 186 188
e 186 189
e 186 190
e 186 191
e 186 192
e 186 193
e 186 195
e 186 206
e 187 188
e 187 189
e 187 190
e 187 191
e 187 192
e 187 193
e 187 196
e 187 208
e 188 189
e 188 190
e 188 191
e 188 192
e 188 193
e 188 197
e 188 209
e 189 190
e 189 191
e 189 192
e 189 193
e 189 198
e 189 210
e 190 191
e 190 192
e 190 193
e 190 213
e 191 192
e 191 193
e 191 202
e 191 214
e 192 193
e 192 203
e 192 215
e 193 216
e 194 195
e 194 196
e 194 197
e 194 198
e 194 199
e 194 200
e 194 201
e 194 202
e 194 203
e 195 196
e 195 197
e 195 198
e 195 199
e 195 200
e 195 201
e 195 202
e 195 203
e 195 206
e 196 197
e 196 198
e 196 199
e 196 200
e 196 201
e 196 202
e 196 203
e 196 208
e 197 198
e 197 199
e 197 200
e 197 201
e 197 202
e 197 203
e 197 209
e 198 199
e 198 200
e 198 201
e 198 202
e 198 203
e 198 210
e 199 200
e 199 201
e 199 202
e 199 203
e 200 201
e 200 202
e 200 203
e 200 211
e 201 202
e 201 203
e 202 203
e 202 214
e 203 215
e 204 205
e 204 206
e 204 207
e 204 208
e 204 209
e 204 210
e 204 211
e 204 212
e 204 213
e 204 214
e 204 215
e 204 216
e 204 217
e 205 206
e 205 207
e 205 208
e 205 209
e 205 210
e 205 211
e 205 212
e 205 213
e 205 214
e 205 215
e 205 216
e 205 217
e 206 207
e 206 208
e 206 209
e 206 210
e 206 211
e 206 212
e 206 213
e 206 214
e 206 215
e 206 216
e 206 217
e 207 208
e 207 209
e 207 210
e 207 211
e 207 212
e 207 213
e 207 214
e 207 215
e 207 216
e 207 217
e 208 209
e 208 210
e 208 211
e 208 212
e 208 213
e 208 214
e 208 215
e 208 216
e 208 217
e 209 210
e 209 211
e 209 212
e 209 213
e 209 214
e 209 215
e 209 216
e 209 217
e 210 211
e 210 212
e 210 213
e 210 214
e 210 215
e 210 216
e 210 217
e 211 212
e 211 213
e 211 214
e 211 215
e 211 216
e 211 217
e 212 213
e 212 214
e 212 215
e 212 216
e 212 217
e 213 214
e 213 215
e 213 216
e 213 217
e 214 215
e 214 216
e 214 217
e 215 216
e 215 217
e 216 217
